tsp_instances/TSP20/instance19.tsp
NODE_COORD_SECTION
0 66 36
1 6 178
2 21 53
3 7 25
4 188 200
5 145 55
6 28 81
7 122 188
8 184 67
9 79 2
10 169 16
11 114 134
12 24 135
13 193 26
14 122 156
15 18 78
16 93 155
17 50 97
18 79 177
19 125 50
