tsp_instances/TSP20/instance19.opt.tour
TOUR_SECTION
1
4
3
16
7
18
13
2
19
17
12
15
8
5
9
14
11
6
20
10
-1